% number of games is 42

num = 42;
cap = 5;
refill = 2;
fun = [-1, 9, 18, 1, 17, -11, 0, -2, 12, 5, 1, -13, -10, 4, 20, -10, -2, 8, -20, -19, 3, 18, 4, 18, -19, -4, 12, -12, 11, -11, 20, -12, 15, 14, 19, 20, -3, -16, -14, 10, 15, -16];
